(set-info :smt-lib-version 2.6)
(set-logic LRA)
(set-info :source |
   Monniaux, David; Quantifier Elimination by Lazy Model Enumeration, CAV 2010
|)
(set-info :category "random")
; ./Mjollnir_examples/B5/formula_039.m
(set-info :status sat)
(assert
 (forall ((|v17:0| Real) )(forall ((|v16:1| Real) )(forall ((|v15:2| Real) )(forall ((|v14:3| Real) )(forall ((|v13:4| Real) )(forall ((|v12:5| Real) )(exists ((|v11:6| Real) )(exists ((|v10:7| Real) )(exists ((|v9:8| Real) )(exists ((|v8:9| Real) )(exists ((|v7:10| Real) )(exists ((|v6:11| Real) )(forall ((|v5:12| Real) )(forall ((|v4:13| Real) )(forall ((|v3:14| Real) )(forall ((|v2:15| Real) )(forall ((|v1:16| Real) )(forall ((|v0:17| Real) )(let ((?x34 20))
(let ((?x360 (+ (+ (* (- 4) |v8:9|) (* (- 7) |v13:4|)) (* 12 |v14:3|))))
(let ((?x61 (- 19)))
(let ((?x348 (+ (+ (* (- 18) |v0:17|) (* 6 |v6:11|)) (* (- 8) |v1:16|))))
(let ((?x195 8))
(let ((?x218 (* ?x195 |v14:3|)))
(let ((?x342 (+ (+ (* 6 |v14:3|) (* 16 |v13:4|)) (* (- 11) |v6:11|))))
(let (($x352 (or (<= (+ ?x342 ?x218) ?x34) (<= (+ ?x348 (* (- 1) |v2:15|)) ?x61))))
(let ((?x53 (- 11)))
(let ((?x333 (+ (+ (* 7 |v12:5|) (* (- 8) |v2:15|)) (* (- 20) |v4:13|))))
(let ((?x13 (- 8)))
(let ((?x327 (+ (+ (* 11 |v3:14|) (* (- 16) |v9:8|)) (* 3 |v6:11|))))
(let (($x337 (or (<= (+ ?x327 (* (- 12) |v3:14|)) ?x13) (<= (+ ?x333 (* 9 |v2:15|)) ?x53))))
(let ((?x317 (+ (+ (+ (* ?x61 |v10:7|) (* ?x34 |v12:5|)) (* (- 16) |v14:3|)) (* ?x195 |v0:17|))))
(let ((?x95 (- 1)))
(let ((?x77 (* ?x13 |v0:17|)))
(let ((?x307 (+ (+ (+ (* 6 |v4:13|) (* (- 18) |v5:12|)) ?x77) (* 4 |v3:14|))))
(let ((?x26 6))
(let ((?x297 (+ (+ (* (- 13) |v2:15|) (* 0 |v14:3|)) (* (- 10) |v15:2|))))
(let ((?x290 (+ (+ (* (- 20) |v5:12|) (* ?x26 |v6:11|)) (* (- 4) |v16:1|))))
(let (($x301 (or (<= (+ ?x290 (* 9 |v4:13|)) ?x61) (<= (+ ?x297 (* 10 |v9:8|)) ?x26))))
(let ((?x277 (+ (+ (* (- 18) |v17:0|) (* (- 5) |v5:12|)) (* ?x26 |v13:4|))))
(let (($x355 (or (<= (+ ?x277 (* 10 |v17:0|)) 13) (and (or $x301 (or (<= ?x307 ?x95) (<= ?x317 ?x13))) (and $x337 $x352)))))
(let ((?x265 (+ (+ (* ?x95 |v14:3|) (* 11 |v4:13|)) (* (- 2) |v1:16|))))
(let ((?x164 (- 17)))
(let ((?x10 7))
(let ((?x171 (* ?x10 |v9:8|)))
(let ((?x258 (+ (+ (+ (* 12 |v0:17|) (* ?x34 |v16:1|)) ?x171) (* ?x164 |v15:2|))))
(let ((?x141 9))
(let ((?x217 (* ?x141 |v14:3|)))
(let ((?x249 (+ (+ (* 14 |v7:10|) (* (- 7) |v2:15|)) (* ?x95 |v8:9|))))
(let ((?x31 17))
(let ((?x70 2))
(let ((?x139 (* ?x70 |v14:3|)))
(let ((?x241 (+ (+ (+ (* ?x61 |v5:12|) (* ?x141 |v16:1|)) (* (- 2) |v17:0|)) ?x139)))
(let (($x269 (and (or (and (<= ?x241 ?x31) (<= (+ ?x249 ?x217) ?x53)) (<= ?x258 ?x164)) (<= (+ ?x265 (* 15 |v12:5|)) ?x195))))
(let ((?x112 12))
(let ((?x234 (+ (+ (+ (* ?x26 |v9:8|) (* ?x141 |v9:8|)) |v14:3|) (* 18 |v13:4|))))
(let ((?x119 14))
(let (($x224 (<= (+ (+ (+ ?x217 ?x218) (* ?x34 |v11:6|)) (* 11 |v7:10|)) ?x119)))
(let ((?x211 (- 20)))
(let ((?x214 (* ?x26 |v9:8|)))
(let ((?x215 (+ (+ (+ (* ?x95 |v6:11|) (* (- 18) |v1:16|)) (* ?x211 |v12:5|)) ?x214)))
(let ((?x103 (- 12)))
(let ((?x202 (+ (+ (+ (* 0 |v10:7|) (* ?x10 |v8:9|)) (* ?x112 |v1:16|)) (* 18 |v10:7|))))
(let ((?x194 (+ (+ (+ (* (- 2) |v5:12|) (* ?x53 |v0:17|)) (* ?x31 |v6:11|)) (* ?x70 |v8:9|))))
(let ((?x23 0))
(let ((?x179 (* ?x23 |v14:3|)))
(let ((?x178 (+ (+ (* (- 13) |v1:16|) (* ?x103 |v11:6|)) (* 16 |v12:5|))))
(let ((?x170 (+ (+ (* 4 |v1:16|) (* ?x164 |v9:8|)) (* (- 13) |v14:3|))))
(let ((?x155 (+ (+ (* (- 14) |v2:15|) (* (- 14) |v12:5|)) (* ?x61 |v0:17|))))
(let ((?x149 4))
(let (($x150 (<= (+ (+ (+ ?x139 (* ?x141 |v3:14|)) (* ?x70 |v2:15|)) (* ?x13 |v15:2|)) ?x149)))
(let (($x183 (or (or $x150 (<= (+ ?x155 (* (- 9) |v2:15|)) ?x23)) (and (<= (+ ?x170 ?x171) ?x70) (<= (+ ?x178 ?x179) ?x10)))))
(let (($x227 (or $x183 (and (and (<= ?x194 ?x195) (<= ?x202 ?x103)) (and (<= ?x215 ?x211) $x224)))))
(let ((?x130 (+ (+ (* 16 |v1:16|) (* ?x95 |v4:13|)) (* (- 10) |v6:11|))))
(let ((?x64 (- 6)))
(let ((?x122 (+ (+ (+ (* ?x112 |v7:10|) (* (- 10) |v8:9|)) (* ?x119 |v17:0|)) |v17:0|)))
(let ((?x105 (+ (+ (* 11 |v17:0|) (* 11 |v2:15|)) (* ?x103 |v6:11|))))
(let ((?x93 (* ?x13 |v2:15|)))
(let ((?x91 (+ (+ (* 15 |v11:6|) (* ?x34 |v0:17|)) (* 5 |v4:13|))))
(let (($x135 (or (or (<= (+ ?x91 ?x93) ?x95) (<= (+ ?x105 (* ?x61 |v6:11|)) ?x13)) (or (<= ?x122 ?x64) (<= (+ ?x130 (* (- 14) |v10:7|)) ?x13)))))
(let ((?x79 5))
(let ((?x78 (+ (+ (+ (* ?x64 |v17:0|) (* ?x70 |v1:16|)) (* (- 5) |v17:0|)) ?x77)))
(let ((?x63 (+ (+ (+ (* 18 |v4:13|) (* ?x53 |v10:7|)) (* ?x53 |v3:14|)) (* ?x61 |v16:1|))))
(let ((?x42 (+ (+ (+ (* ?x31 |v17:0|) (* ?x34 |v8:9|)) (* ?x10 |v12:5|)) (* ?x26 |v0:17|))))
(let ((?x25 (+ (+ (+ (* ?x10 |v8:9|) (* ?x13 |v8:9|)) (* (- 14) |v9:8|)) (* ?x23 |v6:11|))))
(let (($x82 (and (or (<= ?x25 ?x26) (<= ?x42 (- 15))) (and (<= ?x63 ?x64) (<= ?x78 ?x79)))))
(or (or (or (or $x82 $x135) $x227) (or (<= ?x234 ?x112) $x269)) (or $x355 (<= (+ ?x360 (* ?x79 |v1:16|)) ?x34))))))))))))))))))))))))))))))))))))))))))))))))))))))))))))))))))))))))
)
)
)
)
)
)
)
)
)
)
)
)
)
)
)
)
)
)
(check-sat)
(exit)

